/*********************************************
 * OPL 12.6.0.0 Data
 * Author: Adrian Rodriguez Bazaga, Pau Rodriguez Esmerats
 * Creation Date: 06/12/2017 at 23:02:54
 *********************************************/

nNurses=89;
maxConsec=2;
maxPresence=7;
maxHours=5;
minHours=1;
hours=24;
demand= [14 18 25 23 18 25 23 20 20 11 1 2 1 3 1 1 0 1 0 1 10 22 12 16  ];
